c --- [ banner ] -------------------------------------------------------------
c 
c CaDiCaL SAT Solver
c Copyright (c) 2016-2024
c A. Biere, M. Fleury, N. Froleyks, K. Fazekas, F. Pollitt, T. Faller
c JKU Linz, University of Freiburg, TU Wien
c 
c Version 2.1.3 f13d74439a5b5c963ac5b02d05ce93a8098018b8
c g++ (Gentoo 12.3.1_p20230526 p2) 12.3.1 20230526 -Wall -Wextra -O3 -DNDEBUG
c Thu Apr 10 08:26:21 EDT 2025 Linux narval2.narval.calcul.quebec 4.18.0-553.40.1.el8_10.x86_64 x86_64
c 
c --- [ parsing input ] ------------------------------------------------------
c 
c reading DIMACS file from 'cnfs//php_5.cnf'
c opening file to read 'cnfs//php_5.cnf'
c found 'p cnf 30 81' header
c parsed 81 clauses in 0.00 seconds process time
c 
c --- [ options ] ------------------------------------------------------------
c 
c all options are set to their default value
c 
c --- [ solving ] ------------------------------------------------------------
c 
c time measured in process time since initialization
c 
c  seconds  reductions  redundant irredundant
c         MB    restarts       trail    variables
c          level   conflicts       glue     remaining
c 
c *  0.00  4  0 0   0    0    0  0% 0   81  30 100%
c {  0.00  4  0 0   0    0    0  0% 0   81  30 100%
c i  0.00  4  3 0   0   34    9 100% 2   81  29 97%
c i  0.00  4  4 0   3  114   40 99% 2   81  23 77%
c i  0.00  4  4 0   3  127   47 99% 2   81  18 60%
c i  0.00  4  4 0   3  129   47 99% 2   81  17 57%
c i  0.00  4  4 0   3  130   47 99% 2   81  16 53%
c i  0.00  4  4 0   3  131   47 99% 2   81  10 33%
c }  0.00  4  4 0   3  133   47 99% 2   81   1  3%
c 0  0.00  4  4 0   3  133   47 99% 2   81   1  3%
c 
c --- [ result ] -------------------------------------------------------------
c 
s UNSATISFIABLE
c 
c --- [ run-time profiling ] -------------------------------------------------
c 
c process time taken by individual solving procedures
c (percentage relative to process time for solving)
c 
c         0.00   79.84% search
c         0.00   75.78% unstable
c         0.00   54.69% parse
c         0.00    2.67% lucky
c         0.00    0.00% simplify
c   =================================
c         0.00   41.39% solve
c 
c last line shows process time for solving
c (percentage relative to total process time)
c 
c --- [ statistics ] ---------------------------------------------------------
c 
c chronological:                45        33.83 %  of conflicts
c conflicts:                   133    154113.56    per second
c decisions:                   168    194669.76    per second
c fixed:                        29        96.67 %  of all variables
c learned:                     131        98.50 %  per conflict
c learned_lits:                911       100.00 %  learned literals
c minimized:                     0         0.00 %  learned literals
c shrunken:                    413        45.33 %  learned literals
c minishrunken:                  4         0.44 %  learned literals
c otfs:                          2         1.50 %  of conflict
c propagations:               1551         1.80 M  per second
c restarts:                      3        44.33    interval
c subsumed:                     77        37.56 %  of all clauses
c strengthened:                  2         0.98 %  of all clauses
c 
c seconds are measured in process time for solving
c 
c --- [ resources ] ----------------------------------------------------------
c 
c total process time since initialization:         0.00    seconds
c total real time since initialization:            0.19    seconds
c maximum resident set size of process:            3.95    MB
c 
c --- [ shutting down ] ------------------------------------------------------
c 
c exit 20
